NAME : traveling-santa-2018-prime-paths.29952.tour
COMMENT : Length = 29952
COMMENT : Found by LKH [Keld Helsgaun] Mon Jun 27 15:57:33 2022
TYPE : TOUR
DIMENSION : 100
TOUR_SECTION
1
9
12
65
98
14
20
32
68
23
31
52
43
28
86
33
85
41
73
60
27
88
48
62
35
57
79
53
54
18
5
77
19
71
3
80
17
24
96
91
51
34
22
84
99
72
76
100
47
82
90
95
93
6
4
78
13
15
69
40
30
11
75
37
21
45
74
81
59
38
83
16
42
97
8
36
2
66
26
64
25
58
94
44
10
87
7
55
61
56
70
92
29
63
89
67
49
46
50
39
-1
EOF
